\ENCODING=ISO-8859-1
\Problem name: ilog.cplex

Minimize
 obj1: 98513 x1 + 94174 x2 + 109893 x3 + 101720 x4 + 107774 x5 + 94399 x6
       + 99720 x7 + 93996 x8 + 105994 x9 + 107187 x10 + 108001 x11 + 92813 x12
       + 90815 x13 + 97030 x14 + 94396 x15 + 95089 x16 + 93234 x17 + 96506 x18
       + 104761 x19 + 107889 x20 + 95456 x21 + 109271 x22 + 98041 x23
       + 97817 x24 + 101595 x25 + 92429 x26 + 102289 x27 + 96967 x28
       + 109518 x29 + 94494 x30 + 109640 x31 + 103550 x32 + 96533 x33
       + 96597 x34 + 109722 x35 + 104528 x36 + 91653 x37 + 96626 x38
       + 96359 x39 + 107476 x40 + 102781 x41 + 108683 x42 + 103351 x43
       + 99356 x44 + 98477 x45 + 103533 x46 + 91726 x47 + 91021 x48 + 90806 x49
       + 109629 x50 + 108887 x51 + 91078 x52 + 90404 x53 + 106486 x54
       + 96520 x55 + 108073 x56 + 98088 x57 + 96143 x58 + 90067 x59
       + 109980 x60 + 100172 x61 + 100971 x62 + 109170 x63 + 100886 x64
       + 103090 x65 + 98730 x66 + 104693 x67 + 96315 x68 + 95527 x69
       + 102662 x70 + 93488 x71 + 91441 x72 + 104427 x73 + 95211 x74
       + 93353 x75 + 91753 x76 + 102287 x77 + 98286 x78 + 91721 x79
       + 100899 x80 + 92675 x81 + 91752 x82 + 101119 x83 + 103294 x84
       + 108303 x85 + 95002 x86 + 94633 x87 + 107516 x88 + 93949 x89
       + 105244 x90 + 95418 x91 + 90602 x92 + 95156 x93 + 100492 x94
       + 95710 x95 + 103069 x96 + 92861 x97 + 105314 x98 + 102841 x99
       + 99813 x100 + 92985 x101 + 108394 x102 + 99125 x103 + 92465 x104
       + 99546 x105 + 94167 x106 + 98279 x107 + 104936 x108 + 98392 x109
       + 93996 x110 + 108432 x111 + 98268 x112 + 99790 x113 + 98987 x114
       + 95343 x115 + 106399 x116 + 103288 x117 + 98231 x118 + 93332 x119
       + 98219 x120 + 99401 x121 + 106606 x122 + 98086 x123 + 106475 x124
       + 95024 x125 + 107325 x126 + 102170 x127 + 92611 x128 + 92887 x129
       + 100685 x130 + 104600 x131 + 91604 x132 + 91325 x133 + 95915 x134
       + 92051 x135 + 109228 x136 + 92198 x137 + 99159 x138 + 91231 x139
       + 93031 x140 + 92025 x141 + 97350 x142 + 109411 x143 + 107916 x144
       + 104217 x145 + 95121 x146 + 93287 x147 + 97359 x148 + 98743 x149
       + 109854 x150 + 108608 x151 + 99362 x152 + 99745 x153 + 90686 x154
       + 99895 x155 + 103453 x156 + 100048 x157 + 94120 x158 + 93129 x159
       + 101226 x160 + 104827 x161 + 109796 x162 + 109077 x163 + 109719 x164
       + 92841 x165 + 106817 x166 + 105749 x167 + 106240 x168 + 105452 x169
       + 93429 x170 + 95884 x171 + 105444 x172 + 102627 x173 + 108022 x174
       + 94582 x175 + 104241 x176 + 94290 x177 + 97786 x178 + 108610 x179
       + 106118 x180 + 107749 x181 + 90574 x182 + 102493 x183 + 105853 x184
       + 108400 x185 + 100285 x186 + 90804 x187 + 100629 x188 + 107916 x189
       + 106377 x190 + 90854 x191 + 94185 x192 + 91844 x193 + 94085 x194
       + 105544 x195 + 96936 x196 + 96800 x197 + 93513 x198 + 92183 x199
       + 96852 x200 + 103438 x201 + 94663 x202 + 104679 x203 + 105481 x204
       + 90292 x205 + 105539 x206 + 109731 x207 + 95818 x208 + 100471 x209
       + 98586 x210 + 102663 x211 + 93110 x212 + 93318 x213 + 91506 x214
       + 96460 x215 + 98998 x216 + 101400 x217 + 92898 x218 + 93553 x219
       + 103031 x220 + 91860 x221 + 100976 x222 + 99601 x223 + 101699 x224
       + 107757 x225 + 107357 x226 + 93385 x227 + 105232 x228 + 101859 x229
       + 108972 x230 + 108317 x231 + 101194 x232 + 107876 x233 + 95682 x234
       + 108932 x235 + 96177 x236 + 102257 x237 + 106357 x238 + 99168 x239
       + 99964 x240 + 93472 x241 + 92002 x242 + 98337 x243 + 90097 x244
       + 95036 x245 + 90895 x246 + 105372 x247 + 99035 x248 + 93633 x249
       + 197297 x250 + 19779 x251 + 19206 x252 + 19613 x253 + 20919 x254
       + 20798 x255 + 19988 x256 + 20655 x257 + 18735 x258 + 20795 x259
       + 21565 x260 + 21481 x261 + 21837 x262 + 20132 x263 + 20515 x264
       + 20422 x265 + 18935 x266 + 18663 x267 + 18930 x268 + 18592 x269
       + 20346 x270 + 21143 x271 + 21208 x272 + 21166 x273 + 18967 x274
       + 18538 x275 + 21461 x276 + 18916 x277 + 19199 x278 + 21163 x279
       + 19833 x280 + 21754 x281 + 21413 x282 + 18278 x283 + 18949 x284
       + 21417 x285 + 19658 x286 + 19906 x287 + 20051 x288 + 18237 x289
       + 21853 x290 + 20070 x291 + 18049 x292 + 21083 x293 + 18533 x294
       + 18532 x295 + 21794 x296 + 20108 x297 + 20531 x298 + 18299 x299
       + 17985 x300
Subject To
 c1:   x8 - x19 + x22 + x24  = 0
 c2:   x58 - x69 + x72 + x74  = 0
 c3:   x108 - x119 + x122 + x124  = 0
 c4:   x158 - x169 + x172 + x174  = 0
 c5:   x208 - x219 + x222 + x224  = 0
 c6:   - x10 + x16 + x29 - x30 + x46 + x47  = 0
 c7:   - x60 + x66 + x79 - x80 + x96 + x97  = 0
 c8:   - x110 + x116 + x129 - x130 + x146 + x147  = -1
 c9:   - x160 + x166 + x179 - x180 + x196 + x197  = 0
 c10:  - x210 + x216 + x229 - x230 + x246 + x247  = 0
 c11:  - x1 - x12 + x17 + x21 - x35 - x36 + x43 + x48 + x49  = 0
 c12:  - x51 - x62 + x67 + x71 - x85 - x86 + x93 + x98 + x99  = 0
 c13:  - x101 - x112 + x117 + x121 - x135 - x136 + x143 + x148 + x149  = 0
 c14:  - x151 - x162 + x167 + x171 - x185 - x186 + x193 + x198 + x199  = 0
 c15:  - x201 - x212 + x217 + x221 - x235 - x236 + x243 + x248 + x249  = 1
 c16:  x9 - x11 + x28 - x31 - x34 - x42 - x45  = 0
 c17:  x59 - x61 + x78 - x81 - x84 - x92 - x95  = 0
 c18:  x109 - x111 + x128 - x131 - x134 - x142 - x145  = 0
 c19:  x159 - x161 + x178 - x181 - x184 - x192 - x195  = 0
 c20:  x209 - x211 + x228 - x231 - x234 - x242 - x245  = 0
 c21:  x2 - x15 - x18 - x21 + x33 - x50  = 0
 c22:  x52 - x65 - x68 - x71 + x83 - x100  = 0
 c23:  x102 - x115 - x118 - x121 + x133 - x150  = 0
 c24:  x152 - x165 - x168 - x171 + x183 - x200  = 0
 c25:  x202 - x215 - x218 - x221 + x233 - x250  = 0
 c26:  x14 - x16 + x19 + x27 - x32 + x35 - x37 + x39  = -1
 c27:  x64 - x66 + x69 + x77 - x82 + x85 - x87 + x89  = 1
 c28:  x114 - x116 + x119 + x127 - x132 + x135 - x137 + x139  = 0
 c29:  x164 - x166 + x169 + x177 - x182 + x185 - x187 + x189  = 0
 c30:  x214 - x216 + x219 + x227 - x232 + x235 - x237 + x239  = 0
 c31:  - x3 + x12 - x20 - x24 - x27 + x31  = 0
 c32:  - x53 + x62 - x70 - x74 - x77 + x81  = 0
 c33:  - x103 + x112 - x120 - x124 - x127 + x131  = 0
 c34:  - x153 + x162 - x170 - x174 - x177 + x181  = 0
 c35:  - x203 + x212 - x220 - x224 - x227 + x231  = 0
 c36:  - x6 - x7 + x38 + x40 + x44 - x48  = 0
 c37:  - x56 - x57 + x88 + x90 + x94 - x98  = 0
 c38:  - x106 - x107 + x138 + x140 + x144 - x148  = 0
 c39:  - x156 - x157 + x188 + x190 + x194 - x198  = 0
 c40:  - x206 - x207 + x238 + x240 + x244 - x248  = 0
 c41:  x3 - x5 + x7 - x8 + x10 - x13 + x37 - x40 - x49 + x50  = 1
 c42:  x53 - x55 + x57 - x58 + x60 - x63 + x87 - x90 - x99 + x100  = 0
 c43:  x103 - x105 + x107 - x108 + x110 - x113 + x137 - x140 - x149 + x150  = 0
 c44:  x153 - x155 + x157 - x158 + x160 - x163 + x187 - x190 - x199 + x200  = 0
 c45:  x203 - x205 + x207 - x208 + x210 - x213 + x237 - x240 - x249 + x250  = 0
 c46:  x18 + x23 - x25 - x29 + x30 - x38 - x39  = 0
 c47:  x68 + x73 - x75 - x79 + x80 - x88 - x89  = 0
 c48:  x118 + x123 - x125 - x129 + x130 - x138 - x139  = 1
 c49:  x168 + x173 - x175 - x179 + x180 - x188 - x189  = 1
 c50:  x218 + x223 - x225 - x229 + x230 - x238 - x239  = 0
 c51:  x1 + x13 + x20 + x25 - x43 + x45 - x47  = 0
 c52:  x51 + x63 + x70 + x75 - x93 + x95 - x97  = 0
 c53:  x101 + x113 + x120 + x125 - x143 + x145 - x147  = 0
 c54:  x151 + x163 + x170 + x175 - x193 + x195 - x197  = 0
 c55:  x201 + x213 + x220 + x225 - x243 + x245 - x247  = 0
 c56:  x4 + x15 - x41  = 0
 c57:  x54 + x65 - x91  = 0
 c58:  x104 + x115 - x141  = 0
 c59:  x154 + x165 - x191  = 0
 c60:  x204 + x215 - x241  = 0
 c61:  - x2 - x4 + x5 + x6 - x22 - x28 + x34 - x44  = 0
 c62:  - x52 - x54 + x55 + x56 - x72 - x78 + x84 - x94  = 0
 c63:  - x102 - x104 + x105 + x106 - x122 - x128 + x134 - x144  = 0
 c64:  - x152 - x154 + x155 + x156 - x172 - x178 + x184 - x194  = 0
 c65:  - x202 - x204 + x205 + x206 - x222 - x228 + x234 - x244  = 0
 c66:  - x9 + x11 - x17 + x26 + x32 - x33  = 0
 c67:  - x59 + x61 - x67 + x76 + x82 - x83  = -1
 c68:  - x109 + x111 - x117 + x126 + x132 - x133  = 0
 c69:  - x159 + x161 - x167 + x176 + x182 - x183  = 0
 c70:  - x209 + x211 - x217 + x226 + x232 - x233  = 0
 c71:  - x14 - x23 - x26 + x36 + x41 + x42 - x46  = 0
 c72:  - x64 - x73 - x76 + x86 + x91 + x92 - x96  = 0
 c73:  - x114 - x123 - x126 + x136 + x141 + x142 - x146  = 0
 c74:  - x164 - x173 - x176 + x186 + x191 + x192 - x196  = -1
 c75:  - x214 - x223 - x226 + x236 + x241 + x242 - x246  = -1
 c76:  4 x1 + 4 x51 + 4 x101 + 4 x151 + 4 x201 - 10 x251 <= 0
 c77:  4 x2 + 4 x52 + 4 x102 + 4 x152 + 4 x202 - 9 x252 <= 0
 c78:  4 x3 + 4 x53 + 4 x103 + 4 x153 + 4 x203 - 11 x253 <= 0
 c79:  4 x4 + 4 x54 + 4 x104 + 4 x154 + 4 x204 - 11 x254 <= 0
 c80:  4 x5 + 4 x55 + 4 x105 + 4 x155 + 4 x205 - 11 x255 <= 0
 c81:  4 x6 + 4 x56 + 4 x106 + 4 x156 + 4 x206 - 10 x256 <= 0
 c82:  4 x7 + 4 x57 + 4 x107 + 4 x157 + 4 x207 - 10 x257 <= 0
 c83:  4 x8 + 4 x58 + 4 x108 + 4 x158 + 4 x208 - 11 x258 <= 0
 c84:  4 x9 + 4 x59 + 4 x109 + 4 x159 + 4 x209 - 10 x259 <= 0
 c85:  4 x10 + 4 x60 + 4 x110 + 4 x160 + 4 x210 - 10 x260 <= 0
 c86:  4 x11 + 4 x61 + 4 x111 + 4 x161 + 4 x211 - 10 x261 <= 0
 c87:  4 x12 + 4 x62 + 4 x112 + 4 x162 + 4 x212 - 9 x262 <= 0
 c88:  4 x13 + 4 x63 + 4 x113 + 4 x163 + 4 x213 - 11 x263 <= 0
 c89:  4 x14 + 4 x64 + 4 x114 + 4 x164 + 4 x214 - 9 x264 <= 0
 c90:  4 x15 + 4 x65 + 4 x115 + 4 x165 + 4 x215 - 11 x265 <= 0
 c91:  4 x16 + 4 x66 + 4 x116 + 4 x166 + 4 x216 - 9 x266 <= 0
 c92:  4 x17 + 4 x67 + 4 x117 + 4 x167 + 4 x217 - 9 x267 <= 0
 c93:  4 x18 + 4 x68 + 4 x118 + 4 x168 + 4 x218 - 11 x268 <= 0
 c94:  4 x19 + 4 x69 + 4 x119 + 4 x169 + 4 x219 - 11 x269 <= 0
 c95:  4 x20 + 4 x70 + 4 x120 + 4 x170 + 4 x220 - 11 x270 <= 0
 c96:  4 x21 + 4 x71 + 4 x121 + 4 x171 + 4 x221 - 9 x271 <= 0
 c97:  4 x22 + 4 x72 + 4 x122 + 4 x172 + 4 x222 - 11 x272 <= 0
 c98:  4 x23 + 4 x73 + 4 x123 + 4 x173 + 4 x223 - 10 x273 <= 0
 c99:  4 x24 + 4 x74 + 4 x124 + 4 x174 + 4 x224 - 11 x274 <= 0
 c100: 4 x25 + 4 x75 + 4 x125 + 4 x175 + 4 x225 - 10 x275 <= 0
 c101: 4 x26 + 4 x76 + 4 x126 + 4 x176 + 4 x226 - 9 x276 <= 0
 c102: 4 x27 + 4 x77 + 4 x127 + 4 x177 + 4 x227 - 9 x277 <= 0
 c103: 4 x28 + 4 x78 + 4 x128 + 4 x178 + 4 x228 - 11 x278 <= 0
 c104: 4 x29 + 4 x79 + 4 x129 + 4 x179 + 4 x229 - 10 x279 <= 0
 c105: 4 x30 + 4 x80 + 4 x130 + 4 x180 + 4 x230 - 10 x280 <= 0
 c106: 4 x31 + 4 x81 + 4 x131 + 4 x181 + 4 x231 - 10 x281 <= 0
 c107: 4 x32 + 4 x82 + 4 x132 + 4 x182 + 4 x232 - 10 x282 <= 0
 c108: 4 x33 + 4 x83 + 4 x133 + 4 x183 + 4 x233 - 10 x283 <= 0
 c109: 4 x34 + 4 x84 + 4 x134 + 4 x184 + 4 x234 - 11 x284 <= 0
 c110: 4 x35 + 4 x85 + 4 x135 + 4 x185 + 4 x235 - 9 x285 <= 0
 c111: 4 x36 + 4 x86 + 4 x136 + 4 x186 + 4 x236 - 9 x286 <= 0
 c112: 4 x37 + 4 x87 + 4 x137 + 4 x187 + 4 x237 - 10 x287 <= 0
 c113: 4 x38 + 4 x88 + 4 x138 + 4 x188 + 4 x238 - 9 x288 <= 0
 c114: 4 x39 + 4 x89 + 4 x139 + 4 x189 + 4 x239 - 10 x289 <= 0
 c115: 4 x40 + 4 x90 + 4 x140 + 4 x190 + 4 x240 - 11 x290 <= 0
 c116: 4 x41 + 4 x91 + 4 x141 + 4 x191 + 4 x241 - 10 x291 <= 0
 c117: 4 x42 + 4 x92 + 4 x142 + 4 x192 + 4 x242 - 11 x292 <= 0
 c118: 4 x43 + 4 x93 + 4 x143 + 4 x193 + 4 x243 - 9 x293 <= 0
 c119: 4 x44 + 4 x94 + 4 x144 + 4 x194 + 4 x244 - 10 x294 <= 0
 c120: 4 x45 + 4 x95 + 4 x145 + 4 x195 + 4 x245 - 10 x295 <= 0
 c121: 4 x46 + 4 x96 + 4 x146 + 4 x196 + 4 x246 - 9 x296 <= 0
 c122: 4 x47 + 4 x97 + 4 x147 + 4 x197 + 4 x247 - 9 x297 <= 0
 c123: 4 x48 + 4 x98 + 4 x148 + 4 x198 + 4 x248 - 10 x298 <= 0
 c124: 4 x49 + 4 x99 + 4 x149 + 4 x199 + 4 x249 - 11 x299 <= 0
 c125: 4 x50 + 4 x100 + 4 x150 + 4 x200 + 4 x250 - 8 x300 <= 0
Bounds
 0 <= x1 <= 1
 0 <= x2 <= 1
 0 <= x3 <= 1
 0 <= x4 <= 1
 0 <= x5 <= 1
 0 <= x6 <= 1
 0 <= x7 <= 1
 0 <= x8 <= 1
 0 <= x9 <= 1
 0 <= x10 <= 1
 0 <= x11 <= 1
 0 <= x12 <= 1
 0 <= x13 <= 1
 0 <= x14 <= 1
 0 <= x15 <= 1
 0 <= x16 <= 1
 0 <= x17 <= 1
 0 <= x18 <= 1
 0 <= x19 <= 1
 0 <= x20 <= 1
 0 <= x21 <= 1
 0 <= x22 <= 1
 0 <= x23 <= 1
 0 <= x24 <= 1
 0 <= x25 <= 1
 0 <= x26 <= 1
 0 <= x27 <= 1
 0 <= x28 <= 1
 0 <= x29 <= 1
 0 <= x30 <= 1
 0 <= x31 <= 1
 0 <= x32 <= 1
 0 <= x33 <= 1
 0 <= x34 <= 1
 0 <= x35 <= 1
 0 <= x36 <= 1
 0 <= x37 <= 1
 0 <= x38 <= 1
 0 <= x39 <= 1
 0 <= x40 <= 1
 0 <= x41 <= 1
 0 <= x42 <= 1
 0 <= x43 <= 1
 0 <= x44 <= 1
 0 <= x45 <= 1
 0 <= x46 <= 1
 0 <= x47 <= 1
 0 <= x48 <= 1
 0 <= x49 <= 1
 0 <= x50 <= 1
 0 <= x51 <= 1
 0 <= x52 <= 1
 0 <= x53 <= 1
 0 <= x54 <= 1
 0 <= x55 <= 1
 0 <= x56 <= 1
 0 <= x57 <= 1
 0 <= x58 <= 1
 0 <= x59 <= 1
 0 <= x60 <= 1
 0 <= x61 <= 1
 0 <= x62 <= 1
 0 <= x63 <= 1
 0 <= x64 <= 1
 0 <= x65 <= 1
 0 <= x66 <= 1
 0 <= x67 <= 1
 0 <= x68 <= 1
 0 <= x69 <= 1
 0 <= x70 <= 1
 0 <= x71 <= 1
 0 <= x72 <= 1
 0 <= x73 <= 1
 0 <= x74 <= 1
 0 <= x75 <= 1
 0 <= x76 <= 1
 0 <= x77 <= 1
 0 <= x78 <= 1
 0 <= x79 <= 1
 0 <= x80 <= 1
 0 <= x81 <= 1
 0 <= x82 <= 1
 0 <= x83 <= 1
 0 <= x84 <= 1
 0 <= x85 <= 1
 0 <= x86 <= 1
 0 <= x87 <= 1
 0 <= x88 <= 1
 0 <= x89 <= 1
 0 <= x90 <= 1
 0 <= x91 <= 1
 0 <= x92 <= 1
 0 <= x93 <= 1
 0 <= x94 <= 1
 0 <= x95 <= 1
 0 <= x96 <= 1
 0 <= x97 <= 1
 0 <= x98 <= 1
 0 <= x99 <= 1
 0 <= x100 <= 1
 0 <= x101 <= 1
 0 <= x102 <= 1
 0 <= x103 <= 1
 0 <= x104 <= 1
 0 <= x105 <= 1
 0 <= x106 <= 1
 0 <= x107 <= 1
 0 <= x108 <= 1
 0 <= x109 <= 1
 0 <= x110 <= 1
 0 <= x111 <= 1
 0 <= x112 <= 1
 0 <= x113 <= 1
 0 <= x114 <= 1
 0 <= x115 <= 1
 0 <= x116 <= 1
 0 <= x117 <= 1
 0 <= x118 <= 1
 0 <= x119 <= 1
 0 <= x120 <= 1
 0 <= x121 <= 1
 0 <= x122 <= 1
 0 <= x123 <= 1
 0 <= x124 <= 1
 0 <= x125 <= 1
 0 <= x126 <= 1
 0 <= x127 <= 1
 0 <= x128 <= 1
 0 <= x129 <= 1
 0 <= x130 <= 1
 0 <= x131 <= 1
 0 <= x132 <= 1
 0 <= x133 <= 1
 0 <= x134 <= 1
 0 <= x135 <= 1
 0 <= x136 <= 1
 0 <= x137 <= 1
 0 <= x138 <= 1
 0 <= x139 <= 1
 0 <= x140 <= 1
 0 <= x141 <= 1
 0 <= x142 <= 1
 0 <= x143 <= 1
 0 <= x144 <= 1
 0 <= x145 <= 1
 0 <= x146 <= 1
 0 <= x147 <= 1
 0 <= x148 <= 1
 0 <= x149 <= 1
 0 <= x150 <= 1
 0 <= x151 <= 1
 0 <= x152 <= 1
 0 <= x153 <= 1
 0 <= x154 <= 1
 0 <= x155 <= 1
 0 <= x156 <= 1
 0 <= x157 <= 1
 0 <= x158 <= 1
 0 <= x159 <= 1
 0 <= x160 <= 1
 0 <= x161 <= 1
 0 <= x162 <= 1
 0 <= x163 <= 1
 0 <= x164 <= 1
 0 <= x165 <= 1
 0 <= x166 <= 1
 0 <= x167 <= 1
 0 <= x168 <= 1
 0 <= x169 <= 1
 0 <= x170 <= 1
 0 <= x171 <= 1
 0 <= x172 <= 1
 0 <= x173 <= 1
 0 <= x174 <= 1
 0 <= x175 <= 1
 0 <= x176 <= 1
 0 <= x177 <= 1
 0 <= x178 <= 1
 0 <= x179 <= 1
 0 <= x180 <= 1
 0 <= x181 <= 1
 0 <= x182 <= 1
 0 <= x183 <= 1
 0 <= x184 <= 1
 0 <= x185 <= 1
 0 <= x186 <= 1
 0 <= x187 <= 1
 0 <= x188 <= 1
 0 <= x189 <= 1
 0 <= x190 <= 1
 0 <= x191 <= 1
 0 <= x192 <= 1
 0 <= x193 <= 1
 0 <= x194 <= 1
 0 <= x195 <= 1
 0 <= x196 <= 1
 0 <= x197 <= 1
 0 <= x198 <= 1
 0 <= x199 <= 1
 0 <= x200 <= 1
 0 <= x201 <= 1
 0 <= x202 <= 1
 0 <= x203 <= 1
 0 <= x204 <= 1
 0 <= x205 <= 1
 0 <= x206 <= 1
 0 <= x207 <= 1
 0 <= x208 <= 1
 0 <= x209 <= 1
 0 <= x210 <= 1
 0 <= x211 <= 1
 0 <= x212 <= 1
 0 <= x213 <= 1
 0 <= x214 <= 1
 0 <= x215 <= 1
 0 <= x216 <= 1
 0 <= x217 <= 1
 0 <= x218 <= 1
 0 <= x219 <= 1
 0 <= x220 <= 1
 0 <= x221 <= 1
 0 <= x222 <= 1
 0 <= x223 <= 1
 0 <= x224 <= 1
 0 <= x225 <= 1
 0 <= x226 <= 1
 0 <= x227 <= 1
 0 <= x228 <= 1
 0 <= x229 <= 1
 0 <= x230 <= 1
 0 <= x231 <= 1
 0 <= x232 <= 1
 0 <= x233 <= 1
 0 <= x234 <= 1
 0 <= x235 <= 1
 0 <= x236 <= 1
 0 <= x237 <= 1
 0 <= x238 <= 1
 0 <= x239 <= 1
 0 <= x240 <= 1
 0 <= x241 <= 1
 0 <= x242 <= 1
 0 <= x243 <= 1
 0 <= x244 <= 1
 0 <= x245 <= 1
 0 <= x246 <= 1
 0 <= x247 <= 1
 0 <= x248 <= 1
 0 <= x249 <= 1
 0 <= x250 <= 1
 0 <= x251 <= 1
 0 <= x252 <= 1
 0 <= x253 <= 1
 0 <= x254 <= 1
 0 <= x255 <= 1
 0 <= x256 <= 1
 0 <= x257 <= 1
 0 <= x258 <= 1
 0 <= x259 <= 1
 0 <= x260 <= 1
 0 <= x261 <= 1
 0 <= x262 <= 1
 0 <= x263 <= 1
 0 <= x264 <= 1
 0 <= x265 <= 1
 0 <= x266 <= 1
 0 <= x267 <= 1
 0 <= x268 <= 1
 0 <= x269 <= 1
 0 <= x270 <= 1
 0 <= x271 <= 1
 0 <= x272 <= 1
 0 <= x273 <= 1
 0 <= x274 <= 1
 0 <= x275 <= 1
 0 <= x276 <= 1
 0 <= x277 <= 1
 0 <= x278 <= 1
 0 <= x279 <= 1
 0 <= x280 <= 1
 0 <= x281 <= 1
 0 <= x282 <= 1
 0 <= x283 <= 1
 0 <= x284 <= 1
 0 <= x285 <= 1
 0 <= x286 <= 1
 0 <= x287 <= 1
 0 <= x288 <= 1
 0 <= x289 <= 1
 0 <= x290 <= 1
 0 <= x291 <= 1
 0 <= x292 <= 1
 0 <= x293 <= 1
 0 <= x294 <= 1
 0 <= x295 <= 1
 0 <= x296 <= 1
 0 <= x297 <= 1
 0 <= x298 <= 1
 0 <= x299 <= 1
 0 <= x300 <= 1
Binaries
 x251  x252  x253  x254  x255  x256  x257  x258  x259  x260  x261  x262  x263 
 x264  x265  x266  x267  x268  x269  x270  x271  x272  x273  x274  x275  x276 
 x277  x278  x279  x280  x281  x282  x283  x284  x285  x286  x287  x288  x289 
 x290  x291  x292  x293  x294  x295  x296  x297  x298  x299  x300 
End
